1602160
1 54 18207
54 13 13535
13 47 9113
47 4 12781
4 48 7247
48 20 9225
20 65 13331
65 45 16725
45 27 8214
27 17 1444
17 9 5356
9 58 1776
58 15 6903
15 8 6874
8 68 34470
68 35 19070
35 51 8926
51 39 11004
39 62 8740
62 37 30445
37 53 6554
53 44 84806
44 14 62419
14 10 62052
10 18 28651
18 57 27906
57 33 88918
33 52 101508
52 22 46274
22 31 39447
31 28 65445
28 50 10810
50 36 24707
36 59 8563
59 16 10879
16 2 21568
2 63 25130
63 21 32195
21 38 42597
38 67 15199
67 7 19183
7 43 52949
43 46 69393
46 34 36286
34 55 20834
55 26 61621
26 66 57990
66 11 13370
11 64 35955
64 6 32038
6 41 10602
41 25 5278
25 30 1248
30 3 21976
3 61 12946
61 24 5436
24 42 14669
42 29 15312
29 60 6419
60 23 7498
23 49 4353
49 19 8894
19 5 15573
5 40 3130
40 56 3489
56 32 1426
32 12 4813
12 1 10465
